TOUR_SECTION
1
102
20
32
116
107
90
50
49
165
134
112
198
169
88
161
175
127
146
153
69
55
48
104
173
65
171
163
136
118
142
84
36
182
21
144
94
86
197
30
13
4
81
57
135
162
75
121
23
172
150
96
85
74
43
6
58
123
143
9
10
129
170
108
5
59
184
133
66
106
193
77
124
149
46
40
45
92
155
190
47
181
151
71
111
2
52
156
137
201
131
22
29
14
154
183
87
164
126
140
180
15
177
95
37
18
24
174
26
148
115
159
33
7
130
89
67
199
78
68
11
73
157
185
17
200
110
70
97
105
147
100
187
194
145
28
122
120
82
191
119
61
64
189
101
80
168
128
166
54
83
167
27
79
195
160
41
114
117
99
196
56
53
178
98
8
16
63
192
35
31
93
44
179
42
3
138
91
141
38
158
139
39
60
25
176
76
125
19
72
34
103
51
62
113
109
12
152
132
186
188
-1
EOF